\ENCODING=ISO-8859-1
\Problem name: IloCplex

Maximize
 obj1: 52 x1 - x2 - x3 - x4 - x5 - x6 - x7 - x8 - x9 - x10 - x11 - 12 x12
       - 10 x13 - 2 x14
Subject To
 c1:  13 x1 - x2 + 450 x12 + 98 x13 + 494 x14 <= 0
 c2:  5 x1 - x3 + 171 x12 + 465 x13 + 237 x14 <= 0
 c3:  5 x1 - x4 + 947 x12 + 492 x13 + 818 x14 <= 0
 c4:  9 x1 - x5 + 670 x12 + 435 x13 + 340 x14 <= 0
 c5:  10 x1 - x6 + 774 x12 + 822 x13 + 621 x14 <= 0
 c6:  11 x1 - x7 + 523 x12 + 599 x13 + 270 x14 <= 0
 c7:  14 x1 - x8 + 427 x12 + 631 x13 + 357 x14 <= 0
 c8:  15 x1 - x9 + 901 x12 + 386 x13 + 125 x14 <= 0
 c9:  12 x1 - x10 + 288 x12 + 369 x13 + 80 x14 <= 0
 c10: 10 x1 - x11 + 367 x12 + 994 x13 + 811 x14 <= 0
 c11: x12 + x13 + x14  = 1
Bounds
 -Inf <= x1 <= 0
End
